(set-info :Origin "This instance was generated by: BanditFuzz-- an RL fuzzer for SMT solvers" )
(set-info :Author "Joe Scott, Fed Mora, Vijay Ganesh" )
(set-info :Contact "Joe Scott, joseph.scott@uwaterloo.ca")
(set-logic QF_BV)
(declare-const bool_0 Bool)
(declare-const bool_1 Bool)
(declare-const bool_2 Bool)
(declare-const bool_3 Bool)
(declare-const bool_4 Bool)
(declare-const bv_0 (_ BitVec 32))
(declare-const bv_1 (_ BitVec 32))
(declare-const bv_2 (_ BitVec 32))
(declare-const bv_3 (_ BitVec 32))
(declare-const bv_4 (_ BitVec 32))
(assert (bvsle (bvnand (bvxor #x3caf3c27  bv_3) (bvsmod bv_2 #x4290ae65 )) (bvadd (bvsmod #x67f1c2ef  #x1137a134 ) (bvnand #xdf7ba7c8  bv_1))))
(assert (bvslt (bvlshr (bvor bv_0 #x358cc7f7 ) (bvor #xbf6e73a9  bv_2)) (bvxor (bvsrem #xd0006e40  #xc34c9643 ) (bvadd #x51e6380b  bv_3))))
(assert (bvugt (bvxnor (bvsub bv_0 #xa85efc6f ) (bvashr bv_3 #x2594f64b )) (bvsub (bvxnor bv_2 bv_1) (bvurem bv_3 #x7128ebe9 ))))
(assert (bvslt (bvlshr (bvxnor bv_0 bv_0) (bvsmod bv_2 bv_1)) (bvnor (bvlshr bv_2 bv_4) (bvsdiv bv_0 bv_2))))
(assert (bvsge (bvsrem (bvsmod #x6590e965  bv_3) (bvsdiv bv_1 #x958a1917 )) (bvsmod (bvlshr bv_3 #x624bc1ae ) (bvudiv #x36ff87a8  bv_4))))
(check-sat)
(exit)
